; printing sygus problem  

(set-logic LIA)
(declare-var i_30-42-30-64 Int)

(declare-var MC_741360_30-42-30-64 Int)

(synth-fun __SYNTHFUN_f_30-42-30-64((i Int)(MC_741360 Int)) Bool
((Start Bool)(IntExpr Int))
((Start Bool ((< IntExpr IntExpr) (<= IntExpr IntExpr) ))
(IntExpr Int (i MC_741360 0 1 ))
)
)

(constraint (and (=> (and (= i_30-42-30-64 138) (= MC_741360_30-42-30-64 150)) (= (__SYNTHFUN_f_30-42-30-64 i_30-42-30-64 MC_741360_30-42-30-64 ) true)) (and (=> (and (= MC_741360_30-42-30-64 150) (= i_30-42-30-64 61)) (= (__SYNTHFUN_f_30-42-30-64 i_30-42-30-64 MC_741360_30-42-30-64 ) true)) (and (=> (and (= i_30-42-30-64 123) (= MC_741360_30-42-30-64 150)) (= (__SYNTHFUN_f_30-42-30-64 i_30-42-30-64 MC_741360_30-42-30-64 ) true)) (and (=> (and (= i_30-42-30-64 144) (= MC_741360_30-42-30-64 150)) (= (__SYNTHFUN_f_30-42-30-64 i_30-42-30-64 MC_741360_30-42-30-64 ) true)) (and (=> (and (= i_30-42-30-64 117) (= MC_741360_30-42-30-64 150)) (= (__SYNTHFUN_f_30-42-30-64 i_30-42-30-64 MC_741360_30-42-30-64 ) true)) (and (=> (and (= i_30-42-30-64 126) (= MC_741360_30-42-30-64 150)) (= (__SYNTHFUN_f_30-42-30-64 i_30-42-30-64 MC_741360_30-42-30-64 ) true)) (and (=> (and (= i_30-42-30-64 132) (= MC_741360_30-42-30-64 150)) (= (__SYNTHFUN_f_30-42-30-64 i_30-42-30-64 MC_741360_30-42-30-64 ) true)) (and (=> (and (= i_30-42-30-64 57) (= MC_741360_30-42-30-64 150)) (= (__SYNTHFUN_f_30-42-30-64 i_30-42-30-64 MC_741360_30-42-30-64 ) true)) (and (=> (and (= i_30-42-30-64 147) (= MC_741360_30-42-30-64 150)) (= (__SYNTHFUN_f_30-42-30-64 i_30-42-30-64 MC_741360_30-42-30-64 ) true)) (and (=> (and (= i_30-42-30-64 99) (= MC_741360_30-42-30-64 150)) (= (__SYNTHFUN_f_30-42-30-64 i_30-42-30-64 MC_741360_30-42-30-64 ) true)) (and (=> (and (= i_30-42-30-64 105) (= MC_741360_30-42-30-64 150)) (= (__SYNTHFUN_f_30-42-30-64 i_30-42-30-64 MC_741360_30-42-30-64 ) true)) (and (=> (and (= MC_741360_30-42-30-64 150) (= i_30-42-30-64 90)) (= (__SYNTHFUN_f_30-42-30-64 i_30-42-30-64 MC_741360_30-42-30-64 ) true)) (and (=> (and (= MC_741360_30-42-30-64 150) (= i_30-42-30-64 111)) (= (__SYNTHFUN_f_30-42-30-64 i_30-42-30-64 MC_741360_30-42-30-64 ) true)) (and (=> (and (= MC_741360_30-42-30-64 150) (= i_30-42-30-64 150)) (= (__SYNTHFUN_f_30-42-30-64 i_30-42-30-64 MC_741360_30-42-30-64 ) true)) (and (=> (and (= MC_741360_30-42-30-64 150) (= i_30-42-30-64 93)) (= (__SYNTHFUN_f_30-42-30-64 i_30-42-30-64 MC_741360_30-42-30-64 ) true)) (and (=> (and (= i_30-42-30-64 51) (= MC_741360_30-42-30-64 150)) (= (__SYNTHFUN_f_30-42-30-64 i_30-42-30-64 MC_741360_30-42-30-64 ) true)) (and (=> (and (= i_30-42-30-64 108) (= MC_741360_30-42-30-64 150)) (= (__SYNTHFUN_f_30-42-30-64 i_30-42-30-64 MC_741360_30-42-30-64 ) true)) (and (=> (and (= i_30-42-30-64 129) (= MC_741360_30-42-30-64 150)) (= (__SYNTHFUN_f_30-42-30-64 i_30-42-30-64 MC_741360_30-42-30-64 ) true)) (and (=> (and (= MC_741360_30-42-30-64 150) (= i_30-42-30-64 120)) (= (__SYNTHFUN_f_30-42-30-64 i_30-42-30-64 MC_741360_30-42-30-64 ) true)) (and (=> (and (= i_30-42-30-64 114) (= MC_741360_30-42-30-64 150)) (= (__SYNTHFUN_f_30-42-30-64 i_30-42-30-64 MC_741360_30-42-30-64 ) true)) (and (=> (and (= MC_741360_30-42-30-64 150) (= i_30-42-30-64 87)) (= (__SYNTHFUN_f_30-42-30-64 i_30-42-30-64 MC_741360_30-42-30-64 ) true)) (and (=> (and (= i_30-42-30-64 72) (= MC_741360_30-42-30-64 150)) (= (__SYNTHFUN_f_30-42-30-64 i_30-42-30-64 MC_741360_30-42-30-64 ) true)) (and (=> (and (= MC_741360_30-42-30-64 150) (= i_30-42-30-64 81)) (= (__SYNTHFUN_f_30-42-30-64 i_30-42-30-64 MC_741360_30-42-30-64 ) true)) (and (=> (and (= MC_741360_30-42-30-64 150) (= i_30-42-30-64 69)) (= (__SYNTHFUN_f_30-42-30-64 i_30-42-30-64 MC_741360_30-42-30-64 ) true)) (and (=> (and (= MC_741360_30-42-30-64 150) (= i_30-42-30-64 75)) (= (__SYNTHFUN_f_30-42-30-64 i_30-42-30-64 MC_741360_30-42-30-64 ) true)) (and (=> (and (= MC_741360_30-42-30-64 150) (= i_30-42-30-64 102)) (= (__SYNTHFUN_f_30-42-30-64 i_30-42-30-64 MC_741360_30-42-30-64 ) true)) (and (=> (and (= MC_741360_30-42-30-64 150) (= i_30-42-30-64 60)) (= (__SYNTHFUN_f_30-42-30-64 i_30-42-30-64 MC_741360_30-42-30-64 ) true)) (and (=> (and (= i_30-42-30-64 54) (= MC_741360_30-42-30-64 150)) (= (__SYNTHFUN_f_30-42-30-64 i_30-42-30-64 MC_741360_30-42-30-64 ) true)) (and (=> (and (= MC_741360_30-42-30-64 150) (= i_30-42-30-64 96)) (= (__SYNTHFUN_f_30-42-30-64 i_30-42-30-64 MC_741360_30-42-30-64 ) true)) (and (=> (and (= MC_741360_30-42-30-64 150) (= i_30-42-30-64 63)) (= (__SYNTHFUN_f_30-42-30-64 i_30-42-30-64 MC_741360_30-42-30-64 ) true)) (and (=> (and (= MC_741360_30-42-30-64 150) (= i_30-42-30-64 84)) (= (__SYNTHFUN_f_30-42-30-64 i_30-42-30-64 MC_741360_30-42-30-64 ) true)) (and (=> (and (= MC_741360_30-42-30-64 150) (= i_30-42-30-64 78)) (= (__SYNTHFUN_f_30-42-30-64 i_30-42-30-64 MC_741360_30-42-30-64 ) true)) (and (=> (and (= MC_741360_30-42-30-64 150) (= i_30-42-30-64 146)) (= (__SYNTHFUN_f_30-42-30-64 i_30-42-30-64 MC_741360_30-42-30-64 ) true)) (and (=> (and (= MC_741360_30-42-30-64 150) (= i_30-42-30-64 66)) (= (__SYNTHFUN_f_30-42-30-64 i_30-42-30-64 MC_741360_30-42-30-64 ) true)) (and (=> (and (= MC_741360_30-42-30-64 150) (= i_30-42-30-64 128)) (= (__SYNTHFUN_f_30-42-30-64 i_30-42-30-64 MC_741360_30-42-30-64 ) true)) (and (=> (and (= MC_741360_30-42-30-64 150) (= i_30-42-30-64 134)) (= (__SYNTHFUN_f_30-42-30-64 i_30-42-30-64 MC_741360_30-42-30-64 ) true)) (and (=> (and (= MC_741360_30-42-30-64 150) (= i_30-42-30-64 149)) (= (__SYNTHFUN_f_30-42-30-64 i_30-42-30-64 MC_741360_30-42-30-64 ) true)) (and (=> (and (= MC_741360_30-42-30-64 150) (= i_30-42-30-64 140)) (= (__SYNTHFUN_f_30-42-30-64 i_30-42-30-64 MC_741360_30-42-30-64 ) true)) (and (=> (and (= i_30-42-30-64 122) (= MC_741360_30-42-30-64 150)) (= (__SYNTHFUN_f_30-42-30-64 i_30-42-30-64 MC_741360_30-42-30-64 ) true)) (and (=> (and (= MC_741360_30-42-30-64 150) (= i_30-42-30-64 143)) (= (__SYNTHFUN_f_30-42-30-64 i_30-42-30-64 MC_741360_30-42-30-64 ) true)) (and (=> (and (= i_30-42-30-64 137) (= MC_741360_30-42-30-64 150)) (= (__SYNTHFUN_f_30-42-30-64 i_30-42-30-64 MC_741360_30-42-30-64 ) true)) (and (=> (and (= i_30-42-30-64 101) (= MC_741360_30-42-30-64 150)) (= (__SYNTHFUN_f_30-42-30-64 i_30-42-30-64 MC_741360_30-42-30-64 ) true)) (and (=> (and (= i_30-42-30-64 116) (= MC_741360_30-42-30-64 150)) (= (__SYNTHFUN_f_30-42-30-64 i_30-42-30-64 MC_741360_30-42-30-64 ) true)) (and (=> (and (= MC_741360_30-42-30-64 150) (= i_30-42-30-64 131)) (= (__SYNTHFUN_f_30-42-30-64 i_30-42-30-64 MC_741360_30-42-30-64 ) true)) (and (=> (and (= MC_741360_30-42-30-64 150) (= i_30-42-30-64 119)) (= (__SYNTHFUN_f_30-42-30-64 i_30-42-30-64 MC_741360_30-42-30-64 ) true)) (and (=> (and (= i_30-42-30-64 56) (= MC_741360_30-42-30-64 150)) (= (__SYNTHFUN_f_30-42-30-64 i_30-42-30-64 MC_741360_30-42-30-64 ) true)) (and (=> (and (= MC_741360_30-42-30-64 150) (= i_30-42-30-64 110)) (= (__SYNTHFUN_f_30-42-30-64 i_30-42-30-64 MC_741360_30-42-30-64 ) true)) (and (=> (and (= i_30-42-30-64 104) (= MC_741360_30-42-30-64 150)) (= (__SYNTHFUN_f_30-42-30-64 i_30-42-30-64 MC_741360_30-42-30-64 ) true)) (and (=> (and (= i_30-42-30-64 98) (= MC_741360_30-42-30-64 150)) (= (__SYNTHFUN_f_30-42-30-64 i_30-42-30-64 MC_741360_30-42-30-64 ) true)) (and (=> (and (= MC_741360_30-42-30-64 150) (= i_30-42-30-64 125)) (= (__SYNTHFUN_f_30-42-30-64 i_30-42-30-64 MC_741360_30-42-30-64 ) true)) (and (=> (and (= MC_741360_30-42-30-64 150) (= i_30-42-30-64 83)) (= (__SYNTHFUN_f_30-42-30-64 i_30-42-30-64 MC_741360_30-42-30-64 ) true)) (and (=> (and (= MC_741360_30-42-30-64 150) (= i_30-42-30-64 65)) (= (__SYNTHFUN_f_30-42-30-64 i_30-42-30-64 MC_741360_30-42-30-64 ) true)) (and (=> (and (= i_30-42-30-64 92) (= MC_741360_30-42-30-64 150)) (= (__SYNTHFUN_f_30-42-30-64 i_30-42-30-64 MC_741360_30-42-30-64 ) true)) (and (=> (and (= i_30-42-30-64 86) (= MC_741360_30-42-30-64 150)) (= (__SYNTHFUN_f_30-42-30-64 i_30-42-30-64 MC_741360_30-42-30-64 ) true)) (and (=> (and (= i_30-42-30-64 107) (= MC_741360_30-42-30-64 150)) (= (__SYNTHFUN_f_30-42-30-64 i_30-42-30-64 MC_741360_30-42-30-64 ) true)) (and (=> (and (= i_30-42-30-64 59) (= MC_741360_30-42-30-64 150)) (= (__SYNTHFUN_f_30-42-30-64 i_30-42-30-64 MC_741360_30-42-30-64 ) true)) (and (=> (and (= MC_741360_30-42-30-64 150) (= i_30-42-30-64 50)) (= (__SYNTHFUN_f_30-42-30-64 i_30-42-30-64 MC_741360_30-42-30-64 ) true)) (and (=> (and (= i_30-42-30-64 113) (= MC_741360_30-42-30-64 150)) (= (__SYNTHFUN_f_30-42-30-64 i_30-42-30-64 MC_741360_30-42-30-64 ) true)) (and (=> (and (= MC_741360_30-42-30-64 150) (= i_30-42-30-64 71)) (= (__SYNTHFUN_f_30-42-30-64 i_30-42-30-64 MC_741360_30-42-30-64 ) true)) (and (=> (and (= i_30-42-30-64 95) (= MC_741360_30-42-30-64 150)) (= (__SYNTHFUN_f_30-42-30-64 i_30-42-30-64 MC_741360_30-42-30-64 ) true)) (and (=> (and (= i_30-42-30-64 68) (= MC_741360_30-42-30-64 150)) (= (__SYNTHFUN_f_30-42-30-64 i_30-42-30-64 MC_741360_30-42-30-64 ) true)) (and (=> (and (= i_30-42-30-64 89) (= MC_741360_30-42-30-64 150)) (= (__SYNTHFUN_f_30-42-30-64 i_30-42-30-64 MC_741360_30-42-30-64 ) true)) (and (=> (and (= MC_741360_30-42-30-64 150) (= i_30-42-30-64 142)) (= (__SYNTHFUN_f_30-42-30-64 i_30-42-30-64 MC_741360_30-42-30-64 ) true)) (and (=> (and (= MC_741360_30-42-30-64 150) (= i_30-42-30-64 53)) (= (__SYNTHFUN_f_30-42-30-64 i_30-42-30-64 MC_741360_30-42-30-64 ) true)) (and (=> (and (= MC_741360_30-42-30-64 150) (= i_30-42-30-64 74)) (= (__SYNTHFUN_f_30-42-30-64 i_30-42-30-64 MC_741360_30-42-30-64 ) true)) (and (=> (and (= MC_741360_30-42-30-64 150) (= i_30-42-30-64 80)) (= (__SYNTHFUN_f_30-42-30-64 i_30-42-30-64 MC_741360_30-42-30-64 ) true)) (and (=> (and (= i_30-42-30-64 139) (= MC_741360_30-42-30-64 150)) (= (__SYNTHFUN_f_30-42-30-64 i_30-42-30-64 MC_741360_30-42-30-64 ) true)) (and (=> (and (= i_30-42-30-64 77) (= MC_741360_30-42-30-64 150)) (= (__SYNTHFUN_f_30-42-30-64 i_30-42-30-64 MC_741360_30-42-30-64 ) true)) (and (=> (and (= i_30-42-30-64 145) (= MC_741360_30-42-30-64 150)) (= (__SYNTHFUN_f_30-42-30-64 i_30-42-30-64 MC_741360_30-42-30-64 ) true)) (and (=> (and (= MC_741360_30-42-30-64 150) (= i_30-42-30-64 62)) (= (__SYNTHFUN_f_30-42-30-64 i_30-42-30-64 MC_741360_30-42-30-64 ) true)) (and (=> (and (= MC_741360_30-42-30-64 150) (= i_30-42-30-64 130)) (= (__SYNTHFUN_f_30-42-30-64 i_30-42-30-64 MC_741360_30-42-30-64 ) true)) (and (=> (and (= MC_741360_30-42-30-64 150) (= i_30-42-30-64 124)) (= (__SYNTHFUN_f_30-42-30-64 i_30-42-30-64 MC_741360_30-42-30-64 ) true)) (and (=> (and (= MC_741360_30-42-30-64 150) (= i_30-42-30-64 127)) (= (__SYNTHFUN_f_30-42-30-64 i_30-42-30-64 MC_741360_30-42-30-64 ) true)) (and (=> (and (= i_30-42-30-64 148) (= MC_741360_30-42-30-64 150)) (= (__SYNTHFUN_f_30-42-30-64 i_30-42-30-64 MC_741360_30-42-30-64 ) true)) (and (=> (and (= MC_741360_30-42-30-64 150) (= i_30-42-30-64 112)) (= (__SYNTHFUN_f_30-42-30-64 i_30-42-30-64 MC_741360_30-42-30-64 ) true)) (and (=> (and (= MC_741360_30-42-30-64 150) (= i_30-42-30-64 106)) (= (__SYNTHFUN_f_30-42-30-64 i_30-42-30-64 MC_741360_30-42-30-64 ) true)) (and (=> (and (= MC_741360_30-42-30-64 150) (= i_30-42-30-64 133)) (= (__SYNTHFUN_f_30-42-30-64 i_30-42-30-64 MC_741360_30-42-30-64 ) true)) (and (=> (and (= i_30-42-30-64 52) (= MC_741360_30-42-30-64 150)) (= (__SYNTHFUN_f_30-42-30-64 i_30-42-30-64 MC_741360_30-42-30-64 ) true)) (and (=> (and (= MC_741360_30-42-30-64 150) (= i_30-42-30-64 121)) (= (__SYNTHFUN_f_30-42-30-64 i_30-42-30-64 MC_741360_30-42-30-64 ) true)) (and (=> (and (= MC_741360_30-42-30-64 150) (= i_30-42-30-64 136)) (= (__SYNTHFUN_f_30-42-30-64 i_30-42-30-64 MC_741360_30-42-30-64 ) true)) (and (=> (and (= MC_741360_30-42-30-64 150) (= i_30-42-30-64 94)) (= (__SYNTHFUN_f_30-42-30-64 i_30-42-30-64 MC_741360_30-42-30-64 ) true)) (and (=> (and (= MC_741360_30-42-30-64 150) (= i_30-42-30-64 109)) (= (__SYNTHFUN_f_30-42-30-64 i_30-42-30-64 MC_741360_30-42-30-64 ) true)) (and (=> (and (= MC_741360_30-42-30-64 150) (= i_30-42-30-64 115)) (= (__SYNTHFUN_f_30-42-30-64 i_30-42-30-64 MC_741360_30-42-30-64 ) true)) (and (=> (and (= MC_741360_30-42-30-64 150) (= i_30-42-30-64 100)) (= (__SYNTHFUN_f_30-42-30-64 i_30-42-30-64 MC_741360_30-42-30-64 ) true)) (and (=> (and (= MC_741360_30-42-30-64 150) (= i_30-42-30-64 88)) (= (__SYNTHFUN_f_30-42-30-64 i_30-42-30-64 MC_741360_30-42-30-64 ) true)) (and (=> (and (= MC_741360_30-42-30-64 150) (= i_30-42-30-64 97)) (= (__SYNTHFUN_f_30-42-30-64 i_30-42-30-64 MC_741360_30-42-30-64 ) true)) (and (=> (and (= MC_741360_30-42-30-64 150) (= i_30-42-30-64 103)) (= (__SYNTHFUN_f_30-42-30-64 i_30-42-30-64 MC_741360_30-42-30-64 ) true)) (and (=> (and (= MC_741360_30-42-30-64 150) (= i_30-42-30-64 82)) (= (__SYNTHFUN_f_30-42-30-64 i_30-42-30-64 MC_741360_30-42-30-64 ) true)) (and (=> (and (= MC_741360_30-42-30-64 150) (= i_30-42-30-64 118)) (= (__SYNTHFUN_f_30-42-30-64 i_30-42-30-64 MC_741360_30-42-30-64 ) true)) (and (=> (and (= i_30-42-30-64 55) (= MC_741360_30-42-30-64 150)) (= (__SYNTHFUN_f_30-42-30-64 i_30-42-30-64 MC_741360_30-42-30-64 ) true)) (and (=> (and (= MC_741360_30-42-30-64 150) (= i_30-42-30-64 76)) (= (__SYNTHFUN_f_30-42-30-64 i_30-42-30-64 MC_741360_30-42-30-64 ) true)) (and (=> (and (= MC_741360_30-42-30-64 150) (= i_30-42-30-64 79)) (= (__SYNTHFUN_f_30-42-30-64 i_30-42-30-64 MC_741360_30-42-30-64 ) true)) (and (=> (and (= MC_741360_30-42-30-64 150) (= i_30-42-30-64 64)) (= (__SYNTHFUN_f_30-42-30-64 i_30-42-30-64 MC_741360_30-42-30-64 ) true)) (and (=> (and (= MC_741360_30-42-30-64 150) (= i_30-42-30-64 91)) (= (__SYNTHFUN_f_30-42-30-64 i_30-42-30-64 MC_741360_30-42-30-64 ) true)) (and (=> (and (= MC_741360_30-42-30-64 150) (= i_30-42-30-64 151)) (= (__SYNTHFUN_f_30-42-30-64 i_30-42-30-64 MC_741360_30-42-30-64 ) false)) (and (=> (and (= MC_741360_30-42-30-64 150) (= i_30-42-30-64 58)) (= (__SYNTHFUN_f_30-42-30-64 i_30-42-30-64 MC_741360_30-42-30-64 ) true)) (and (=> (and (= i_30-42-30-64 70) (= MC_741360_30-42-30-64 150)) (= (__SYNTHFUN_f_30-42-30-64 i_30-42-30-64 MC_741360_30-42-30-64 ) true)) (and (=> (and (= MC_741360_30-42-30-64 150) (= i_30-42-30-64 85)) (= (__SYNTHFUN_f_30-42-30-64 i_30-42-30-64 MC_741360_30-42-30-64 ) true)) (and (=> (and (= MC_741360_30-42-30-64 150) (= i_30-42-30-64 73)) (= (__SYNTHFUN_f_30-42-30-64 i_30-42-30-64 MC_741360_30-42-30-64 ) true)) (and (=> (and (= MC_741360_30-42-30-64 150) (= i_30-42-30-64 67)) (= (__SYNTHFUN_f_30-42-30-64 i_30-42-30-64 MC_741360_30-42-30-64 ) true)) (and (=> (and (= i_30-42-30-64 141) (= MC_741360_30-42-30-64 150)) (= (__SYNTHFUN_f_30-42-30-64 i_30-42-30-64 MC_741360_30-42-30-64 ) true)) (=> (and (= i_30-42-30-64 135) (= MC_741360_30-42-30-64 150)) (= (__SYNTHFUN_f_30-42-30-64 i_30-42-30-64 MC_741360_30-42-30-64 ) true))))))))))))))))))))))))))))))))))))))))))))))))))))))))))))))))))))))))))))))))))))))))))))))))))))))))
(check-synth)


